10000   21   2   44   93   69   4   95   22   24   
69   10000   50   74   75   84   26   60   38   72   
99   56   10000   13   64   10   60   66   38   15   
82   98   37   10000   77   50   41   40   83   36   
55   15   85   59   10000   55   10   96   24   48   
44   14   23   52   60   10000   37   62   71   21   
53   21   81   5   48   60   10000   79   31   98   
7   94   7   35   48   81   60   10000   50   73   
38   83   90   87   71   80   77   91   10000   87   
24   10   73   96   90   52   38   59   72   10000   
